50

99 47 304
98 3 298
98 40 295
97 3 354
96 33 345
90 40 360
88 19 300
86 34 291
82 30 343
82 29 338
80 24 248
79 21 255
76 10 329
76 8 299
76 16 243
74 4 298
69 31 290
67 16 309
66 23 309
64 27 313
62 6 234
59 25 238
55 27 340
52 22 353
51 1 310
51 23 341
50 17 222
49 16 337
44 20 304
43 5 272
41 2 342
41 2 334
41 19 341
41 5 278
41 8 290
37 12 231
35 14 139
33 17 342
32 14 357
32 16 244
31 7 164
31 6 191
31 6 245
30 12 319
29 1 149
23 4 74
23 3 210
22 5 291
20 1 302
20 8 247
